NAME : single
TYPE : ATSP
DIMENSION : 9
EDGE_WEIGHT_TYPE : EXPLICIT
EDGE_WEIGHT_FORMAT : FULL_MATRIX
EDGE_WEIGHT_SECTION
0 810 50007 704 887 516 364 261 287 
0 0 218 124 281 192 313 445 535 
0 218 0 292 295 382 521 634 725 
0 124 292 0 208 87 228 369 448 
0 281 295 208 0 312 467 583 683 
0 192 382 87 312 0 148 276 417 
0 313 521 228 467 148 0 140 219 
0 445 634 369 583 276 140 0 105 
0 535 725 448 683 417 219 105 0 
EOF